100
120
100
100
100
99
99
98
97
96
95
95
91
91
91
90
90
88
88
88
88
87
87
85
85
82
82
81
79
78
78
78
78
78
78
77
77
77
75
74
72
71
69
69
68
67
64
64
62
62
60
58
57
55
55
54
51
51
51
48
48
47
46
45
44
42
38
38
36
34
34
31
30
30
30
28
28
28
26
26
25
25
23
23
22
21
20
19
18
18
17
16
13
9
8
5
4
4
4
4
3
1
